44941.0
1629
1 3 4 11 12 13 14 15 16 19 23 26 28 29 31 32 33 34 36 38 39 40 41 42 45 47 48 50 54 55 56 57 59 60 61 62 63 64 65 66 68 69 72 73 74 75 76 77 78 79 80 81 82 83 84 85 88 89 92 94 96 97 98 99 